c File: data_files/evolved_graphs/g6450.col
c
c Auto generated graph
c
p edge 100 1194
e 1 28
e 1 31
e 1 38
e 1 39
e 1 40
e 1 41
e 1 42
e 1 43
e 1 44
e 1 45
e 1 46
e 1 47
e 1 48
e 1 49
e 1 50
e 1 51
e 1 52
e 1 53
e 1 54
e 1 55
e 1 56
e 1 57
e 1 58
e 1 59
e 1 60
e 1 61
e 1 62
e 1 63
e 1 64
e 1 65
e 1 66
e 1 67
e 1 68
e 1 69
e 1 70
e 1 71
e 1 72
e 1 73
e 1 74
e 1 75
e 1 76
e 1 77
e 1 80
e 1 81
e 1 82
e 1 83
e 1 84
e 1 85
e 1 86
e 1 87
e 1 88
e 1 89
e 1 90
e 1 91
e 1 92
e 1 93
e 1 95
e 1 96
e 1 97
e 1 98
e 1 99
e 1 100
e 2 23
e 2 34
e 2 36
e 2 38
e 2 39
e 2 40
e 2 41
e 2 42
e 2 43
e 2 44
e 2 45
e 2 46
e 2 47
e 2 48
e 2 50
e 2 51
e 2 52
e 2 53
e 2 54
e 2 55
e 2 56
e 2 57
e 2 58
e 2 59
e 2 60
e 2 61
e 2 63
e 2 64
e 2 66
e 2 67
e 2 68
e 2 69
e 2 70
e 2 71
e 2 72
e 2 73
e 2 74
e 2 75
e 2 76
e 2 77
e 2 80
e 2 81
e 2 82
e 2 83
e 2 84
e 2 85
e 2 86
e 2 87
e 2 88
e 2 89
e 2 90
e 2 91
e 2 92
e 2 93
e 2 94
e 2 95
e 2 96
e 2 97
e 2 98
e 2 99
e 2 100
e 3 4
e 3 25
e 3 27
e 3 28
e 3 30
e 3 38
e 3 39
e 3 40
e 3 41
e 3 43
e 3 44
e 3 45
e 3 46
e 3 47
e 3 48
e 3 50
e 3 51
e 3 52
e 3 53
e 3 54
e 3 55
e 3 56
e 3 58
e 3 59
e 3 60
e 3 62
e 3 63
e 3 64
e 3 65
e 3 66
e 3 67
e 3 68
e 3 69
e 3 70
e 3 71
e 3 72
e 3 73
e 3 74
e 3 75
e 3 76
e 3 77
e 3 78
e 3 79
e 3 80
e 3 81
e 3 82
e 3 83
e 3 84
e 3 85
e 3 86
e 3 87
e 3 89
e 3 90
e 3 91
e 3 92
e 3 93
e 3 94
e 3 95
e 3 96
e 3 98
e 3 99
e 3 100
e 4 10
e 4 25
e 4 27
e 4 30
e 4 31
e 4 32
e 4 34
e 4 36
e 4 37
e 4 38
e 4 39
e 4 40
e 4 41
e 4 42
e 4 43
e 4 44
e 4 45
e 4 46
e 4 47
e 4 48
e 4 49
e 4 50
e 4 51
e 4 52
e 4 53
e 4 54
e 4 55
e 4 56
e 4 57
e 4 58
e 4 59
e 4 60
e 4 61
e 4 62
e 4 63
e 4 64
e 4 65
e 4 66
e 4 67
e 4 69
e 4 70
e 4 72
e 4 73
e 4 74
e 4 75
e 4 76
e 4 77
e 4 78
e 4 79
e 4 80
e 4 81
e 4 82
e 4 83
e 4 84
e 4 85
e 4 86
e 4 87
e 4 88
e 4 89
e 4 90
e 4 91
e 4 92
e 4 93
e 4 94
e 4 95
e 4 96
e 4 97
e 4 98
e 4 99
e 4 100
e 5 26
e 5 29
e 5 31
e 5 32
e 5 34
e 5 36
e 5 37
e 5 38
e 5 39
e 5 40
e 5 41
e 5 42
e 5 43
e 5 46
e 5 47
e 5 49
e 5 51
e 5 52
e 5 53
e 5 54
e 5 55
e 5 56
e 5 57
e 5 58
e 5 59
e 5 60
e 5 61
e 5 62
e 5 63
e 5 64
e 5 65
e 5 66
e 5 67
e 5 68
e 5 69
e 5 70
e 5 71
e 5 72
e 5 73
e 5 74
e 5 75
e 5 76
e 5 77
e 5 78
e 5 79
e 5 80
e 5 81
e 5 82
e 5 83
e 5 84
e 5 85
e 5 86
e 5 88
e 5 89
e 5 90
e 5 91
e 5 92
e 5 93
e 5 94
e 5 95
e 5 96
e 5 97
e 5 99
e 5 100
e 6 28
e 6 29
e 6 30
e 6 32
e 6 33
e 6 34
e 6 38
e 6 39
e 6 41
e 6 42
e 6 43
e 6 44
e 6 46
e 6 47
e 6 50
e 6 51
e 6 52
e 6 53
e 6 54
e 6 55
e 6 56
e 6 57
e 6 58
e 6 59
e 6 60
e 6 61
e 6 62
e 6 63
e 6 64
e 6 65
e 6 66
e 6 67
e 6 68
e 6 69
e 6 70
e 6 72
e 6 73
e 6 74
e 6 75
e 6 76
e 6 77
e 6 79
e 6 80
e 6 81
e 6 82
e 6 83
e 6 84
e 6 85
e 6 86
e 6 87
e 6 88
e 6 89
e 6 90
e 6 91
e 6 92
e 6 93
e 6 94
e 6 95
e 6 96
e 6 97
e 6 98
e 6 99
e 6 100
e 7 27
e 7 29
e 7 30
e 7 31
e 7 32
e 7 34
e 7 38
e 7 39
e 7 41
e 7 42
e 7 43
e 7 44
e 7 45
e 7 46
e 7 47
e 7 51
e 7 52
e 7 53
e 7 54
e 7 55
e 7 56
e 7 57
e 7 58
e 7 59
e 7 60
e 7 62
e 7 63
e 7 64
e 7 65
e 7 66
e 7 67
e 7 68
e 7 69
e 7 70
e 7 71
e 7 72
e 7 73
e 7 74
e 7 75
e 7 77
e 7 78
e 7 79
e 7 80
e 7 81
e 7 82
e 7 83
e 7 84
e 7 85
e 7 86
e 7 87
e 7 88
e 7 89
e 7 90
e 7 91
e 7 92
e 7 93
e 7 94
e 7 95
e 7 96
e 7 97
e 7 98
e 7 99
e 7 100
e 8 25
e 8 26
e 8 27
e 8 28
e 8 29
e 8 30
e 8 31
e 8 32
e 8 33
e 8 34
e 8 35
e 8 37
e 8 38
e 8 39
e 8 40
e 8 41
e 8 42
e 8 43
e 8 45
e 8 46
e 8 47
e 8 48
e 8 49
e 8 51
e 8 52
e 8 53
e 8 54
e 8 55
e 8 56
e 8 57
e 8 58
e 8 59
e 8 60
e 8 61
e 8 62
e 8 63
e 8 64
e 8 65
e 8 66
e 8 67
e 8 68
e 8 69
e 8 70
e 8 73
e 8 74
e 8 76
e 8 77
e 8 78
e 8 79
e 8 80
e 8 81
e 8 82
e 8 83
e 8 85
e 8 86
e 8 87
e 8 88
e 8 89
e 8 90
e 8 91
e 8 92
e 8 93
e 8 94
e 8 95
e 8 96
e 8 97
e 8 98
e 8 99
e 8 100
e 9 25
e 9 26
e 9 27
e 9 28
e 9 29
e 9 30
e 9 31
e 9 32
e 9 33
e 9 34
e 9 35
e 9 36
e 9 37
e 9 38
e 9 39
e 9 40
e 9 41
e 9 42
e 9 43
e 9 44
e 9 46
e 9 47
e 9 48
e 9 49
e 9 50
e 9 51
e 9 52
e 9 53
e 9 54
e 9 55
e 9 56
e 9 57
e 9 58
e 9 59
e 9 60
e 9 61
e 9 62
e 9 63
e 9 64
e 9 65
e 9 66
e 9 67
e 9 68
e 9 71
e 9 72
e 9 75
e 9 78
e 9 79
e 9 81
e 9 82
e 9 84
e 9 85
e 9 87
e 9 88
e 9 89
e 9 90
e 9 91
e 9 92
e 9 93
e 9 94
e 9 95
e 9 96
e 9 97
e 9 98
e 9 99
e 9 100
e 10 25
e 10 30
e 10 31
e 10 32
e 10 33
e 10 34
e 10 35
e 10 36
e 10 37
e 10 38
e 10 39
e 10 40
e 10 42
e 10 43
e 10 48
e 10 50
e 10 55
e 10 56
e 10 57
e 10 59
e 10 60
e 10 61
e 10 62
e 10 63
e 10 64
e 10 65
e 10 66
e 10 67
e 10 68
e 10 69
e 10 70
e 10 72
e 10 73
e 10 74
e 10 77
e 10 79
e 10 82
e 10 85
e 10 86
e 10 87
e 10 88
e 10 89
e 10 90
e 10 91
e 10 92
e 10 93
e 10 94
e 10 95
e 10 96
e 10 97
e 10 98
e 10 99
e 10 100
e 11 25
e 11 26
e 11 27
e 11 28
e 11 29
e 11 30
e 11 31
e 11 32
e 11 33
e 11 34
e 11 35
e 11 36
e 11 37
e 11 40
e 11 44
e 11 48
e 11 49
e 11 50
e 11 64
e 11 76
e 11 83
e 11 85
e 11 86
e 11 87
e 11 88
e 11 89
e 11 90
e 11 91
e 11 92
e 11 93
e 11 94
e 11 95
e 11 96
e 11 97
e 11 98
e 11 99
e 11 100
e 12 25
e 12 26
e 12 27
e 12 28
e 12 29
e 12 30
e 12 31
e 12 32
e 12 33
e 12 39
e 12 41
e 12 48
e 12 49
e 12 58
e 12 59
e 12 62
e 12 65
e 12 69
e 12 76
e 12 77
e 12 78
e 12 79
e 12 84
e 12 85
e 12 86
e 12 87
e 12 88
e 12 89
e 12 90
e 12 91
e 12 92
e 12 93
e 12 94
e 12 95
e 12 96
e 12 97
e 12 98
e 12 99
e 12 100
e 13 25
e 13 26
e 13 27
e 13 28
e 13 29
e 13 31
e 13 33
e 13 40
e 13 42
e 13 48
e 13 49
e 13 50
e 13 54
e 13 63
e 13 74
e 13 79
e 13 82
e 13 84
e 13 85
e 13 93
e 13 94
e 13 95
e 13 100
e 14 25
e 14 27
e 14 33
e 14 41
e 14 44
e 14 53
e 14 54
e 14 60
e 14 61
e 14 62
e 14 64
e 14 69
e 14 71
e 14 73
e 14 77
e 14 78
e 14 83
e 14 94
e 14 95
e 14 98
e 14 100
e 15 25
e 15 27
e 15 30
e 15 31
e 15 33
e 15 34
e 15 38
e 15 41
e 15 42
e 15 44
e 15 45
e 15 60
e 15 61
e 15 65
e 15 71
e 15 72
e 15 75
e 15 76
e 15 77
e 15 79
e 15 84
e 15 86
e 15 91
e 15 96
e 16 25
e 16 27
e 16 28
e 16 29
e 16 33
e 16 34
e 16 35
e 16 37
e 16 41
e 16 47
e 16 48
e 16 55
e 16 65
e 16 67
e 16 72
e 16 74
e 16 80
e 16 81
e 16 86
e 16 88
e 17 27
e 17 28
e 17 29
e 17 32
e 17 33
e 17 34
e 17 40
e 17 45
e 17 47
e 17 50
e 17 51
e 17 54
e 17 57
e 17 61
e 17 68
e 17 70
e 17 71
e 17 72
e 17 76
e 17 82
e 17 86
e 17 87
e 17 98
e 17 99
e 18 25
e 18 29
e 18 33
e 18 34
e 18 35
e 18 36
e 18 37
e 18 39
e 18 40
e 18 48
e 18 49
e 18 52
e 18 53
e 18 54
e 18 56
e 18 63
e 18 66
e 18 70
e 18 72
e 18 74
e 18 76
e 18 80
e 18 82
e 18 84
e 18 86
e 18 87
e 18 92
e 19 23
e 19 29
e 19 33
e 19 34
e 19 35
e 19 36
e 19 37
e 19 40
e 19 41
e 19 45
e 19 49
e 19 50
e 19 55
e 19 58
e 19 59
e 19 60
e 19 63
e 19 69
e 19 78
e 19 81
e 19 92
e 19 94
e 19 95
e 19 96
e 19 99
e 20 33
e 20 34
e 20 35
e 20 36
e 20 37
e 20 40
e 20 44
e 20 45
e 20 50
e 20 51
e 20 52
e 20 56
e 20 57
e 20 58
e 20 62
e 20 63
e 20 64
e 20 65
e 20 67
e 20 77
e 20 78
e 20 80
e 20 97
e 21 26
e 21 27
e 21 28
e 21 33
e 21 34
e 21 35
e 21 36
e 21 37
e 21 40
e 21 42
e 21 49
e 21 52
e 21 54
e 21 55
e 21 57
e 21 58
e 21 60
e 21 72
e 21 75
e 21 76
e 21 79
e 21 83
e 21 90
e 22 29
e 22 30
e 22 32
e 22 34
e 22 35
e 22 36
e 22 37
e 22 40
e 22 41
e 22 45
e 22 51
e 22 56
e 22 57
e 22 58
e 22 59
e 22 60
e 22 61
e 22 66
e 22 67
e 22 68
e 22 72
e 22 75
e 22 77
e 22 82
e 22 84
e 22 89
e 22 91
e 23 25
e 23 26
e 23 27
e 23 28
e 23 29
e 23 30
e 23 34
e 23 35
e 23 36
e 23 37
e 23 38
e 23 39
e 23 40
e 23 41
e 23 45
e 23 46
e 23 49
e 23 55
e 23 56
e 23 57
e 23 59
e 23 61
e 23 62
e 23 66
e 23 67
e 23 68
e 23 69
e 23 74
e 23 77
e 23 79
e 23 83
e 23 94
e 24 25
e 24 27
e 24 28
e 24 34
e 24 35
e 24 36
e 24 37
e 24 38
e 24 39
e 24 40
e 24 41
e 24 42
e 24 43
e 24 44
e 24 46
e 24 53
e 24 56
e 24 57
e 24 61
e 24 62
e 24 64
e 24 69
e 24 71
e 24 73
e 24 79
e 24 83
e 25 42
e 25 45
e 25 52
e 25 66
e 25 68
e 25 70
e 25 75
e 25 76
e 25 84
e 25 92
e 25 97
e 26 32
e 26 33
e 26 43
e 26 47
e 26 52
e 26 59
e 26 65
e 26 69
e 26 70
e 26 73
e 26 78
e 26 79
e 26 81
e 26 83
e 26 97
e 27 34
e 27 44
e 27 97
e 28 49
e 28 51
e 28 71
e 28 99
e 28 100
e 29 34
e 29 82
e 29 83
e 29 98
e 29 100
e 30 35
e 30 47
e 30 48
e 30 49
e 30 51
e 30 75
e 30 79
e 30 80
e 30 98
e 30 99
e 31 35
e 31 68
e 31 72
e 31 74
e 31 75
e 31 83
e 31 88
e 32 45
e 32 71
e 32 76
e 32 77
e 32 78
e 32 81
e 32 96
e 33 71
e 33 77
e 33 82
e 34 38
e 34 43
e 34 48
e 34 83
e 34 86
e 35 51
e 35 53
e 35 71
e 35 73
e 35 78
e 35 85
e 36 73
e 36 80
e 36 81
e 36 83
e 36 87
e 36 90
e 37 53
e 37 68
e 37 74
e 37 80
e 37 97
e 38 72
e 38 82
e 39 71
e 39 78
e 39 89
e 40 52
e 40 67
e 41 50
e 41 67
e 41 79
e 42 49
e 42 65
e 42 78
e 42 91
e 42 93
e 43 75
e 43 78
e 43 81
e 43 82
e 43 88
e 44 58
e 44 68
e 44 76
e 44 81
e 44 84
e 45 55
e 45 80
e 45 93
e 46 59
e 46 67
e 46 76
e 46 77
e 46 94
e 46 98
e 47 58
e 47 69
e 47 86
e 47 99
e 48 56
e 48 78
e 48 84
e 49 57
e 49 61
e 49 64
e 50 60
e 50 71
e 50 73
e 50 82
e 50 92
e 50 100
e 51 59
e 51 87
e 51 88
e 52 84
e 52 85
e 52 88
e 53 72
e 53 91
e 54 73
e 54 77
e 54 88
e 55 73
e 55 88
e 56 88
e 58 95
e 60 74
e 61 65
e 61 81
e 61 90
e 62 75
e 62 87
e 62 93
e 63 75
e 63 82
e 63 87
e 64 70
e 65 98
e 66 71
e 66 99
e 67 76
e 68 70
e 68 71
e 68 75
e 68 81
e 69 74
e 69 88
e 70 74
e 70 89
e 72 94
e 76 84
e 80 90
e 80 94
e 80 99
e 83 89
e 85 90
e 85 99
e 86 100
e 88 93
e 89 92
e 90 96
e 91 96
e 92 98
